c colouring generated by benchmark framework
p edge 1754 286515
v 1 39
v 2 46
v 3 28
v 4 45
v 5 32
v 6 59
v 7 41
v 8 49
v 9 51
v 10 45
v 11 20
v 12 71
v 13 63
v 14 47
v 15 52
v 16 72
v 17 20
v 18 73
v 19 83
v 20 21
v 21 72
v 22 84
v 23 31
v 24 5
v 25 72
v 26 50
v 27 42
v 28 77
v 29 20
v 30 45
v 31 12
v 32 66
v 33 76
v 34 13
v 35 6
v 36 64
v 37 2
v 38 43
v 39 84
v 40 3
v 41 45
v 42 11
v 43 34
v 44 47
v 45 44
v 46 28
v 47 27
v 48 82
v 49 76
v 50 6
v 51 63
v 52 54
v 53 59
v 54 66
v 55 58
v 56 44
v 57 36
v 58 19
v 59 90
v 60 63
v 61 34
v 62 24
v 63 43
v 64 35
v 65 32
v 66 13
v 67 54
v 68 19
v 69 4
v 70 38
v 71 43
v 72 59
v 73 27
v 74 16
v 75 39
v 76 39
v 77 49
v 78 5
v 79 85
v 80 39
v 81 12
v 82 15
v 83 53
v 84 1
v 85 4
v 86 87
v 87 48
v 88 23
v 89 23
v 90 24
v 91 24
v 92 7
v 93 68
v 94 51
v 95 54
v 96 66
v 97 45
v 98 12
v 99 67
v 100 15
v 101 84
v 102 69
v 103 56
v 104 36
v 105 57
v 106 44
v 107 5
v 108 24
v 109 32
v 110 50
v 111 49
v 112 17
v 113 71
v 114 21
v 115 8
v 116 54
v 117 62
v 118 26
v 119 23
v 120 88
v 121 10
v 122 9
v 123 12
v 124 28
v 125 61
v 126 88
v 127 53
v 128 13
v 129 60
v 130 15
v 131 16
v 132 40
v 133 11
v 134 3
v 135 10
v 136 16
v 137 14
v 138 81
v 139 9
v 140 43
v 141 11
v 142 71
v 143 13
v 144 66
v 145 21
v 146 65
v 147 73
v 148 59
v 149 65
v 150 15
v 151 91
v 152 45
v 153 67
v 154 58
v 155 46
v 156 42
v 157 20
v 158 14
v 159 65
v 160 3
v 161 35
v 162 86
v 163 3
v 164 2
v 165 81
v 166 17
v 167 61
v 168 28
v 169 85
v 170 87
v 171 51
v 172 11
v 173 1
v 174 32
v 175 2
v 176 12
v 177 17
v 178 89
v 179 10
v 180 21
v 181 1
v 182 45
v 183 4
v 184 70
v 185 42
v 186 87
v 187 1
v 188 1
v 189 35
v 190 44
v 191 37
v 192 71
v 193 79
v 194 6
v 195 8
v 196 23
v 197 25
v 198 22
v 199 68
v 200 53
v 201 48
v 202 11
v 203 45
v 204 50
v 205 77
v 206 18
v 207 0
v 208 13
v 209 89
v 210 28
v 211 4
v 212 42
v 213 7
v 214 77
v 215 7
v 216 4
v 217 89
v 218 61
v 219 2
v 220 21
v 221 86
v 222 47
v 223 39
v 224 72
v 225 35
v 226 32
v 227 13
v 228 13
v 229 82
v 230 22
v 231 44
v 232 10
v 233 42
v 234 43
v 235 28
v 236 79
v 237 70
v 238 56
v 239 33
v 240 57
v 241 33
v 242 52
v 243 85
v 244 16
v 245 27
v 246 49
v 247 5
v 248 35
v 249 86
v 250 5
v 251 41
v 252 41
v 253 24
v 254 65
v 255 16
v 256 10
v 257 33
v 258 4
v 259 46
v 260 9
v 261 24
v 262 26
v 263 11
v 264 67
v 265 44
v 266 20
v 267 35
v 268 20
v 269 13
v 270 11
v 271 46
v 272 85
v 273 4
v 274 28
v 275 5
v 276 82
v 277 9
v 278 19
v 279 57
v 280 38
v 281 45
v 282 48
v 283 55
v 284 41
v 285 21
v 286 14
v 287 71
v 288 6
v 289 48
v 290 2
v 291 51
v 292 68
v 293 25
v 294 28
v 295 23
v 296 12
v 297 1
v 298 26
v 299 52
v 300 20
v 301 37
v 302 19
v 303 78
v 304 54
v 305 55
v 306 52
v 307 15
v 308 43
v 309 4
v 310 27
v 311 59
v 312 22
v 313 12
v 314 25
v 315 56
v 316 52
v 317 13
v 318 50
v 319 30
v 320 18
v 321 25
v 322 25
v 323 32
v 324 55
v 325 34
v 326 29
v 327 15
v 328 34
v 329 17
v 330 8
v 331 42
v 332 2
v 333 3
v 334 33
v 335 27
v 336 15
v 337 11
v 338 12
v 339 53
v 340 49
v 341 1
v 342 81
v 343 48
v 344 40
v 345 28
v 346 86
v 347 24
v 348 59
v 349 14
v 350 60
v 351 46
v 352 14
v 353 27
v 354 67
v 355 38
v 356 63
v 357 42
v 358 58
v 359 90
v 360 48
v 361 15
v 362 48
v 363 47
v 364 77
v 365 6
v 366 27
v 367 30
v 368 46
v 369 26
v 370 5
v 371 22
v 372 90
v 373 51
v 374 83
v 375 27
v 376 65
v 377 5
v 378 11
v 379 10
v 380 2
v 381 62
v 382 47
v 383 81
v 384 9
v 385 1
v 386 22
v 387 2
v 388 22
v 389 44
v 390 82
v 391 33
v 392 37
v 393 62
v 394 30
v 395 16
v 396 23
v 397 47
v 398 27
v 399 14
v 400 13
v 401 67
v 402 54
v 403 0
v 404 11
v 405 90
v 406 55
v 407 59
v 408 41
v 409 54
v 410 4
v 411 48
v 412 18
v 413 60
v 414 28
v 415 40
v 416 7
v 417 12
v 418 43
v 419 10
v 420 40
v 421 85
v 422 66
v 423 63
v 424 7
v 425 71
v 426 0
v 427 25
v 428 0
v 429 66
v 430 55
v 431 13
v 432 36
v 433 24
v 434 17
v 435 2
v 436 86
v 437 62
v 438 46
v 439 8
v 440 14
v 441 27
v 442 67
v 443 17
v 444 8
v 445 21
v 446 52
v 447 82
v 448 39
v 449 34
v 450 48
v 451 51
v 452 18
v 453 27
v 454 76
v 455 79
v 456 55
v 457 8
v 458 23
v 459 29
v 460 4
v 461 54
v 462 7
v 463 16
v 464 58
v 465 31
v 466 23
v 467 42
v 468 3
v 469 38
v 470 19
v 471 32
v 472 8
v 473 21
v 474 68
v 475 69
v 476 52
v 477 35
v 478 4
v 479 43
v 480 1
v 481 5
v 482 7
v 483 38
v 484 64
v 485 77
v 486 16
v 487 26
v 488 46
v 489 30
v 490 41
v 491 9
v 492 56
v 493 6
v 494 45
v 495 13
v 496 23
v 497 74
v 498 11
v 499 33
v 500 47
v 501 25
v 502 27
v 503 35
v 504 50
v 505 29
v 506 20
v 507 10
v 508 16
v 509 20
v 510 48
v 511 36
v 512 29
v 513 71
v 514 45
v 515 7
v 516 64
v 517 64
v 518 35
v 519 57
v 520 69
v 521 79
v 522 66
v 523 32
v 524 81
v 525 16
v 526 18
v 527 47
v 528 6
v 529 11
v 530 49
v 531 46
v 532 4
v 533 8
v 534 85
v 535 55
v 536 49
v 537 15
v 538 21
v 539 57
v 540 49
v 541 37
v 542 34
v 543 53
v 544 15
v 545 20
v 546 40
v 547 49
v 548 9
v 549 41
v 550 2
v 551 83
v 552 42
v 553 7
v 554 49
v 555 79
v 556 81
v 557 42
v 558 80
v 559 30
v 560 18
v 561 69
v 562 53
v 563 64
v 564 47
v 565 46
v 566 34
v 567 25
v 568 14
v 569 2
v 570 23
v 571 62
v 572 20
v 573 19
v 574 36
v 575 15
v 576 14
v 577 8
v 578 57
v 579 55
v 580 24
v 581 16
v 582 53
v 583 91
v 584 9
v 585 22
v 586 72
v 587 65
v 588 24
v 589 83
v 590 20
v 591 35
v 592 48
v 593 46
v 594 21
v 595 43
v 596 8
v 597 7
v 598 55
v 599 42
v 600 74
v 601 18
v 602 10
v 603 67
v 604 7
v 605 91
v 606 31
v 607 37
v 608 11
v 609 21
v 610 40
v 611 49
v 612 38
v 613 26
v 614 77
v 615 68
v 616 23
v 617 50
v 618 29
v 619 47
v 620 57
v 621 36
v 622 81
v 623 20
v 624 6
v 625 17
v 626 41
v 627 38
v 628 56
v 629 67
v 630 6
v 631 34
v 632 0
v 633 26
v 634 23
v 635 0
v 636 79
v 637 8
v 638 55
v 639 75
v 640 6
v 641 17
v 642 65
v 643 10
v 644 0
v 645 73
v 646 44
v 647 5
v 648 14
v 649 48
v 650 66
v 651 20
v 652 55
v 653 53
v 654 55
v 655 56
v 656 56
v 657 80
v 658 52
v 659 75
v 660 40
v 661 59
v 662 22
v 663 89
v 664 29
v 665 42
v 666 17
v 667 24
v 668 7
v 669 26
v 670 19
v 671 8
v 672 57
v 673 64
v 674 2
v 675 41
v 676 18
v 677 35
v 678 26
v 679 23
v 680 62
v 681 6
v 682 17
v 683 39
v 684 37
v 685 12
v 686 72
v 687 6
v 688 69
v 689 3
v 690 53
v 691 88
v 692 14
v 693 85
v 694 5
v 695 33
v 696 48
v 697 24
v 698 22
v 699 67
v 700 34
v 701 2
v 702 37
v 703 69
v 704 78
v 705 0
v 706 1
v 707 8
v 708 41
v 709 5
v 710 1
v 711 79
v 712 34
v 713 14
v 714 21
v 715 13
v 716 58
v 717 33
v 718 54
v 719 34
v 720 11
v 721 22
v 722 9
v 723 65
v 724 33
v 725 91
v 726 78
v 727 66
v 728 51
v 729 57
v 730 28
v 731 29
v 732 3
v 733 5
v 734 12
v 735 30
v 736 8
v 737 2
v 738 16
v 739 0
v 740 41
v 741 22
v 742 0
v 743 13
v 744 80
v 745 36
v 746 77
v 747 9
v 748 6
v 749 89
v 750 75
v 751 51
v 752 48
v 753 13
v 754 30
v 755 48
v 756 50
v 757 48
v 758 37
v 759 44
v 760 69
v 761 12
v 762 38
v 763 1
v 764 78
v 765 81
v 766 3
v 767 22
v 768 14
v 769 70
v 770 60
v 771 8
v 772 27
v 773 40
v 774 47
v 775 10
v 776 53
v 777 65
v 778 18
v 779 45
v 780 13
v 781 9
v 782 38
v 783 72
v 784 15
v 785 61
v 786 33
v 787 90
v 788 23
v 789 3
v 790 0
v 791 50
v 792 38
v 793 59
v 794 41
v 795 18
v 796 5
v 797 24
v 798 60
v 799 0
v 800 9
v 801 9
v 802 36
v 803 15
v 804 1
v 805 58
v 806 11
v 807 38
v 808 36
v 809 8
v 810 40
v 811 61
v 812 22
v 813 51
v 814 83
v 815 50
v 816 47
v 817 60
v 818 45
v 819 15
v 820 76
v 821 32
v 822 25
v 823 73
v 824 10
v 825 36
v 826 0
v 827 29
v 828 9
v 829 33
v 830 32
v 831 35
v 832 46
v 833 50
v 834 86
v 835 44
v 836 51
v 837 3
v 838 35
v 839 29
v 840 53
v 841 42
v 842 9
v 843 53
v 844 56
v 845 2
v 846 15
v 847 24
v 848 12
v 849 25
v 850 40
v 851 38
v 852 44
v 853 50
v 854 29
v 855 69
v 856 34
v 857 29
v 858 18
v 859 17
v 860 24
v 861 44
v 862 74
v 863 42
v 864 24
v 865 14
v 866 23
v 867 34
v 868 6
v 869 58
v 870 85
v 871 39
v 872 14
v 873 37
v 874 91
v 875 17
v 876 68
v 877 60
v 878 24
v 879 4
v 880 90
v 881 73
v 882 6
v 883 56
v 884 9
v 885 4
v 886 23
v 887 3
v 888 76
v 889 0
v 890 56
v 891 66
v 892 3
v 893 60
v 894 45
v 895 39
v 896 61
v 897 35
v 898 88
v 899 19
v 900 38
v 901 81
v 902 58
v 903 22
v 904 54
v 905 8
v 906 7
v 907 31
v 908 74
v 909 19
v 910 2
v 911 11
v 912 66
v 913 30
v 914 16
v 915 88
v 916 71
v 917 40
v 918 77
v 919 10
v 920 55
v 921 3
v 922 51
v 923 25
v 924 12
v 925 42
v 926 20
v 927 16
v 928 31
v 929 64
v 930 29
v 931 37
v 932 57
v 933 60
v 934 63
v 935 32
v 936 3
v 937 40
v 938 49
v 939 70
v 940 16
v 941 30
v 942 83
v 943 37
v 944 30
v 945 90
v 946 0
v 947 72
v 948 12
v 949 40
v 950 16
v 951 75
v 952 53
v 953 33
v 954 11
v 955 44
v 956 76
v 957 37
v 958 59
v 959 49
v 960 65
v 961 26
v 962 57
v 963 15
v 964 31
v 965 24
v 966 54
v 967 89
v 968 26
v 969 24
v 970 52
v 971 46
v 972 3
v 973 37
v 974 35
v 975 26
v 976 5
v 977 48
v 978 54
v 979 45
v 980 29
v 981 47
v 982 26
v 983 54
v 984 63
v 985 41
v 986 68
v 987 45
v 988 77
v 989 18
v 990 62
v 991 36
v 992 6
v 993 49
v 994 41
v 995 14
v 996 38
v 997 25
v 998 8
v 999 6
v 1000 7
v 1001 22
v 1002 24
v 1003 65
v 1004 18
v 1005 65
v 1006 13
v 1007 19
v 1008 40
v 1009 5
v 1010 51
v 1011 28
v 1012 17
v 1013 36
v 1014 28
v 1015 59
v 1016 37
v 1017 3
v 1018 13
v 1019 79
v 1020 68
v 1021 6
v 1022 49
v 1023 19
v 1024 41
v 1025 11
v 1026 45
v 1027 39
v 1028 18
v 1029 34
v 1030 30
v 1031 34
v 1032 65
v 1033 16
v 1034 37
v 1035 40
v 1036 61
v 1037 33
v 1038 73
v 1039 15
v 1040 63
v 1041 11
v 1042 47
v 1043 30
v 1044 90
v 1045 43
v 1046 3
v 1047 33
v 1048 5
v 1049 4
v 1050 12
v 1051 27
v 1052 10
v 1053 33
v 1054 4
v 1055 4
v 1056 53
v 1057 23
v 1058 64
v 1059 62
v 1060 20
v 1061 25
v 1062 17
v 1063 17
v 1064 74
v 1065 1
v 1066 19
v 1067 38
v 1068 78
v 1069 71
v 1070 22
v 1071 15
v 1072 19
v 1073 32
v 1074 48
v 1075 11
v 1076 63
v 1077 11
v 1078 5
v 1079 0
v 1080 31
v 1081 5
v 1082 19
v 1083 43
v 1084 62
v 1085 49
v 1086 32
v 1087 0
v 1088 22
v 1089 37
v 1090 50
v 1091 47
v 1092 47
v 1093 4
v 1094 21
v 1095 70
v 1096 0
v 1097 12
v 1098 28
v 1099 54
v 1100 56
v 1101 44
v 1102 32
v 1103 31
v 1104 9
v 1105 14
v 1106 25
v 1107 58
v 1108 66
v 1109 73
v 1110 38
v 1111 11
v 1112 7
v 1113 15
v 1114 13
v 1115 19
v 1116 26
v 1117 6
v 1118 59
v 1119 22
v 1120 24
v 1121 28
v 1122 22
v 1123 32
v 1124 57
v 1125 57
v 1126 32
v 1127 52
v 1128 28
v 1129 24
v 1130 13
v 1131 64
v 1132 35
v 1133 25
v 1134 25
v 1135 0
v 1136 60
v 1137 6
v 1138 84
v 1139 30
v 1140 37
v 1141 66
v 1142 2
v 1143 39
v 1144 18
v 1145 2
v 1146 26
v 1147 58
v 1148 15
v 1149 36
v 1150 39
v 1151 51
v 1152 61
v 1153 62
v 1154 57
v 1155 27
v 1156 5
v 1157 29
v 1158 3
v 1159 69
v 1160 31
v 1161 66
v 1162 80
v 1163 31
v 1164 42
v 1165 33
v 1166 77
v 1167 16
v 1168 77
v 1169 17
v 1170 74
v 1171 61
v 1172 31
v 1173 21
v 1174 24
v 1175 40
v 1176 8
v 1177 10
v 1178 26
v 1179 50
v 1180 55
v 1181 80
v 1182 44
v 1183 7
v 1184 34
v 1185 10
v 1186 40
v 1187 27
v 1188 51
v 1189 88
v 1190 47
v 1191 8
v 1192 17
v 1193 75
v 1194 62
v 1195 47
v 1196 22
v 1197 3
v 1198 31
v 1199 7
v 1200 1
v 1201 2
v 1202 31
v 1203 31
v 1204 80
v 1205 43
v 1206 37
v 1207 60
v 1208 0
v 1209 0
v 1210 7
v 1211 20
v 1212 8
v 1213 18
v 1214 40
v 1215 41
v 1216 31
v 1217 22
v 1218 49
v 1219 28
v 1220 1
v 1221 15
v 1222 22
v 1223 68
v 1224 2
v 1225 4
v 1226 17
v 1227 39
v 1228 22
v 1229 43
v 1230 80
v 1231 20
v 1232 7
v 1233 47
v 1234 1
v 1235 23
v 1236 82
v 1237 67
v 1238 63
v 1239 17
v 1240 73
v 1241 55
v 1242 42
v 1243 12
v 1244 52
v 1245 10
v 1246 64
v 1247 12
v 1248 26
v 1249 2
v 1250 50
v 1251 21
v 1252 18
v 1253 67
v 1254 18
v 1255 67
v 1256 38
v 1257 42
v 1258 57
v 1259 0
v 1260 46
v 1261 57
v 1262 17
v 1263 6
v 1264 65
v 1265 50
v 1266 36
v 1267 1
v 1268 35
v 1269 29
v 1270 3
v 1271 10
v 1272 69
v 1273 14
v 1274 32
v 1275 34
v 1276 15
v 1277 46
v 1278 14
v 1279 21
v 1280 55
v 1281 91
v 1282 56
v 1283 77
v 1284 19
v 1285 17
v 1286 41
v 1287 61
v 1288 70
v 1289 28
v 1290 24
v 1291 16
v 1292 19
v 1293 44
v 1294 39
v 1295 74
v 1296 51
v 1297 51
v 1298 7
v 1299 83
v 1300 28
v 1301 62
v 1302 82
v 1303 13
v 1304 84
v 1305 65
v 1306 16
v 1307 67
v 1308 61
v 1309 7
v 1310 39
v 1311 60
v 1312 45
v 1313 23
v 1314 49
v 1315 50
v 1316 2
v 1317 84
v 1318 83
v 1319 44
v 1320 35
v 1321 3
v 1322 25
v 1323 58
v 1324 8
v 1325 20
v 1326 33
v 1327 20
v 1328 23
v 1329 32
v 1330 14
v 1331 11
v 1332 61
v 1333 18
v 1334 47
v 1335 24
v 1336 41
v 1337 87
v 1338 39
v 1339 58
v 1340 66
v 1341 52
v 1342 67
v 1343 19
v 1344 30
v 1345 59
v 1346 41
v 1347 40
v 1348 4
v 1349 23
v 1350 39
v 1351 60
v 1352 4
v 1353 7
v 1354 27
v 1355 9
v 1356 7
v 1357 28
v 1358 8
v 1359 7
v 1360 30
v 1361 61
v 1362 7
v 1363 81
v 1364 54
v 1365 5
v 1366 32
v 1367 15
v 1368 62
v 1369 20
v 1370 13
v 1371 30
v 1372 80
v 1373 13
v 1374 46
v 1375 27
v 1376 18
v 1377 28
v 1378 9
v 1379 39
v 1380 20
v 1381 38
v 1382 56
v 1383 15
v 1384 20
v 1385 39
v 1386 60
v 1387 8
v 1388 22
v 1389 59
v 1390 25
v 1391 35
v 1392 30
v 1393 68
v 1394 72
v 1395 36
v 1396 36
v 1397 19
v 1398 3
v 1399 58
v 1400 5
v 1401 54
v 1402 17
v 1403 61
v 1404 31
v 1405 9
v 1406 18
v 1407 55
v 1408 15
v 1409 32
v 1410 19
v 1411 58
v 1412 52
v 1413 9
v 1414 87
v 1415 63
v 1416 83
v 1417 29
v 1418 79
v 1419 28
v 1420 35
v 1421 48
v 1422 7
v 1423 86
v 1424 45
v 1425 63
v 1426 29
v 1427 28
v 1428 30
v 1429 86
v 1430 4
v 1431 7
v 1432 14
v 1433 38
v 1434 53
v 1435 30
v 1436 14
v 1437 24
v 1438 18
v 1439 21
v 1440 38
v 1441 37
v 1442 30
v 1443 23
v 1444 37
v 1445 54
v 1446 26
v 1447 31
v 1448 88
v 1449 61
v 1450 75
v 1451 34
v 1452 0
v 1453 30
v 1454 47
v 1455 74
v 1456 18
v 1457 26
v 1458 57
v 1459 22
v 1460 52
v 1461 0
v 1462 42
v 1463 3
v 1464 6
v 1465 58
v 1466 40
v 1467 17
v 1468 51
v 1469 18
v 1470 23
v 1471 38
v 1472 34
v 1473 74
v 1474 12
v 1475 44
v 1476 26
v 1477 51
v 1478 43
v 1479 73
v 1480 15
v 1481 34
v 1482 45
v 1483 34
v 1484 25
v 1485 42
v 1486 42
v 1487 35
v 1488 31
v 1489 13
v 1490 5
v 1491 77
v 1492 91
v 1493 6
v 1494 70
v 1495 44
v 1496 11
v 1497 43
v 1498 39
v 1499 19
v 1500 56
v 1501 54
v 1502 49
v 1503 4
v 1504 43
v 1505 32
v 1506 18
v 1507 1
v 1508 58
v 1509 5
v 1510 9
v 1511 47
v 1512 36
v 1513 28
v 1514 0
v 1515 82
v 1516 38
v 1517 46
v 1518 52
v 1519 51
v 1520 35
v 1521 12
v 1522 91
v 1523 36
v 1524 63
v 1525 29
v 1526 29
v 1527 52
v 1528 39
v 1529 16
v 1530 8
v 1531 44
v 1532 68
v 1533 3
v 1534 34
v 1535 36
v 1536 4
v 1537 71
v 1538 68
v 1539 11
v 1540 2
v 1541 21
v 1542 20
v 1543 31
v 1544 29
v 1545 77
v 1546 27
v 1547 8
v 1548 39
v 1549 57
v 1550 52
v 1551 13
v 1552 27
v 1553 72
v 1554 68
v 1555 64
v 1556 65
v 1557 40
v 1558 60
v 1559 21
v 1560 1
v 1561 14
v 1562 16
v 1563 25
v 1564 16
v 1565 23
v 1566 11
v 1567 19
v 1568 13
v 1569 1
v 1570 33
v 1571 49
v 1572 76
v 1573 57
v 1574 36
v 1575 60
v 1576 22
v 1577 17
v 1578 43
v 1579 12
v 1580 4
v 1581 31
v 1582 34
v 1583 5
v 1584 2
v 1585 22
v 1586 68
v 1587 26
v 1588 37
v 1589 25
v 1590 0
v 1591 62
v 1592 50
v 1593 10
v 1594 27
v 1595 59
v 1596 39
v 1597 45
v 1598 29
v 1599 59
v 1600 37
v 1601 26
v 1602 51
v 1603 19
v 1604 8
v 1605 35
v 1606 34
v 1607 22
v 1608 14
v 1609 44
v 1610 33
v 1611 13
v 1612 70
v 1613 6
v 1614 4
v 1615 48
v 1616 39
v 1617 25
v 1618 48
v 1619 47
v 1620 49
v 1621 59
v 1622 44
v 1623 4
v 1624 15
v 1625 25
v 1626 9
v 1627 48
v 1628 0
v 1629 9
v 1630 64
v 1631 1
v 1632 28
v 1633 27
v 1634 50
v 1635 31
v 1636 58
v 1637 18
v 1638 50
v 1639 25
v 1640 30
v 1641 21
v 1642 17
v 1643 57
v 1644 51
v 1645 13
v 1646 53
v 1647 73
v 1648 33
v 1649 41
v 1650 21
v 1651 61
v 1652 41
v 1653 61
v 1654 41
v 1655 14
v 1656 41
v 1657 52
v 1658 27
v 1659 46
v 1660 41
v 1661 19
v 1662 31
v 1663 56
v 1664 42
v 1665 17
v 1666 29
v 1667 33
v 1668 63
v 1669 65
v 1670 53
v 1671 57
v 1672 27
v 1673 30
v 1674 12
v 1675 21
v 1676 32
v 1677 10
v 1678 5
v 1679 1
v 1680 36
v 1681 33
v 1682 19
v 1683 31
v 1684 43
v 1685 46
v 1686 1
v 1687 5
v 1688 47
v 1689 56
v 1690 15
v 1691 10
v 1692 33
v 1693 18
v 1694 20
v 1695 11
v 1696 91
v 1697 21
v 1698 40
v 1699 23
v 1700 17
v 1701 2
v 1702 46
v 1703 70
v 1704 51
v 1705 37
v 1706 20
v 1707 61
v 1708 71
v 1709 44
v 1710 31
v 1711 17
v 1712 70
v 1713 57
v 1714 50
v 1715 5
v 1716 28
v 1717 75
v 1718 16
v 1719 23
v 1720 49
v 1721 73
v 1722 75
v 1723 64
v 1724 64
v 1725 16
v 1726 43
v 1727 53
v 1728 9
v 1729 54
v 1730 14
v 1731 78
v 1732 72
v 1733 10
v 1734 49
v 1735 33
v 1736 30
v 1737 75
v 1738 3
v 1739 72
v 1740 90
v 1741 32
v 1742 3
v 1743 52
v 1744 16
v 1745 36
v 1746 64
v 1747 25
v 1748 18
v 1749 29
v 1750 8
v 1751 3
v 1752 52
v 1753 37
v 1754 25
